\ Model vert
\ LP format - for model browsing. Use MPS format to capture full model detail.
Minimize
  2349.598021374356 S_coef + 6.317630489317621 Constant + [ 436921 S_coef ^2
   ] / 2 
Subject To
Bounds
 -1000 <= S_coef <= 0
 Constant = 1
End
